db/data/59051830252505706219821965115631477.z3.out
-------------------
2500.204565944
